\Problem name: Modelo Montagem de Elenco

Minimize
obj: 1.60000 y(5,0) -10.60000 y(5,2) + 2 y(5,4) -2 y(5,5) -3.40000 y(5,6) -0.60000 y(5,7) -8.40000 y(5,9) -3.80000 y(5,10) -1.50000 y(5,12) -5.26000 y(5,13)
 -4.53000 y(5,14) -2.65000 y(5,15) -4 y(5,16) -0.40000 y(5,18)
Subject To
cons0:  y(0,0) + y(1,0) + y(2,0) + y(3,0) + y(4,0) + y(5,0) <= 1
cons1:  y(0,1) + y(1,1) + y(2,1) + y(3,1) + y(4,1) + y(5,1) <= 1
cons2:  y(0,2) + y(1,2) + y(2,2) + y(3,2) + y(4,2) + y(5,2) <= 1
cons3:  y(0,3) + y(1,3) + y(2,3) + y(3,3) + y(4,3) + y(5,3) <= 1
cons4:  y(0,4) + y(1,4) + y(2,4) + y(3,4) + y(4,4) + y(5,4) <= 1
cons5:  y(0,5) + y(1,5) + y(2,5) + y(3,5) + y(4,5) + y(5,5) <= 1
cons6:  y(0,6) + y(1,6) + y(2,6) + y(3,6) + y(4,6) + y(5,6) <= 1
cons7:  y(0,7) + y(1,7) + y(2,7) + y(3,7) + y(4,7) + y(5,7) <= 1
cons8:  y(0,8) + y(1,8) + y(2,8) + y(3,8) + y(4,8) + y(5,8) <= 1
cons9:  y(0,9) + y(1,9) + y(2,9) + y(3,9) + y(4,9) + y(5,9) <= 1
cons10:  y(0,10) + y(1,10) + y(2,10) + y(3,10) + y(4,10) + y(5,10) <= 1
cons11:  y(0,11) + y(1,11) + y(2,11) + y(3,11) + y(4,11) + y(5,11) <= 1
cons12:  y(0,12) + y(1,12) + y(2,12) + y(3,12) + y(4,12) + y(5,12) <= 1
cons13:  y(0,13) + y(1,13) + y(2,13) + y(3,13) + y(4,13) + y(5,13) <= 1
cons14:  y(0,14) + y(1,14) + y(2,14) + y(3,14) + y(4,14) + y(5,14) <= 1
cons15:  y(0,15) + y(1,15) + y(2,15) + y(3,15) + y(4,15) + y(5,15) <= 1
cons16:  y(0,16) + y(1,16) + y(2,16) + y(3,16) + y(4,16) + y(5,16) <= 1
cons17:  y(0,17) + y(1,17) + y(2,17) + y(3,17) + y(4,17) + y(5,17) <= 1
cons18:  y(0,18) + y(1,18) + y(2,18) + y(3,18) + y(4,18) + y(5,18) <= 1
cons19:  y(0,19) + y(1,19) + y(2,19) + y(3,19) + y(4,19) + y(5,19) <= 1
cons20:  y(0,0) + y(0,1) + y(0,2) + y(0,3) + y(0,4) + y(0,5) + y(0,6) + y(0,7) + y(0,8) + y(0,9)
 + y(0,10) + y(0,11) + y(0,12) + y(0,13) + y(0,14) + y(0,15) + y(0,16) + y(0,17) + y(0,18) + y(0,19)
 + y(1,0) + y(1,1) + y(1,2) + y(1,3) + y(1,4) + y(1,5) + y(1,6) + y(1,7) + y(1,8) + y(1,9)
 + y(1,10) + y(1,11) + y(1,12) + y(1,13) + y(1,14) + y(1,15) + y(1,16) + y(1,17) + y(1,18) + y(1,19)
 + y(2,0) + y(2,1) + y(2,2) + y(2,3) + y(2,4) + y(2,5) + y(2,6) + y(2,7) + y(2,8) + y(2,9)
 + y(2,10) + y(2,11) + y(2,12) + y(2,13) + y(2,14) + y(2,15) + y(2,16) + y(2,17) + y(2,18) + y(2,19)
 + y(3,0) + y(3,1) + y(3,2) + y(3,3) + y(3,4) + y(3,5) + y(3,6) + y(3,7) + y(3,8) + y(3,9)
 + y(3,10) + y(3,11) + y(3,12) + y(3,13) + y(3,14) + y(3,15) + y(3,16) + y(3,17) + y(3,18) + y(3,19)
 + y(4,0) + y(4,1) + y(4,2) + y(4,3) + y(4,4) + y(4,5) + y(4,6) + y(4,7) + y(4,8) + y(4,9)
 + y(4,10) + y(4,11) + y(4,12) + y(4,13) + y(4,14) + y(4,15) + y(4,16) + y(4,17) + y(4,18) + y(4,19)
 + y(5,0) + y(5,1) + y(5,2) + y(5,3) + y(5,4) + y(5,5) + y(5,6) + y(5,7) + y(5,8) + y(5,9)
 + y(5,10) + y(5,11) + y(5,12) + y(5,13) + y(5,14) + y(5,15) + y(5,16) + y(5,17) + y(5,18) + y(5,19)
 = 12
cons21:  y(0,0) + y(0,1) + y(0,2) = 2
cons22:  y(1,3) + y(1,4) + y(1,5) = 1
cons23:  y(2,6) + y(2,7) + y(2,8) = 2
cons24:  y(3,9) + y(3,10) + y(3,11) + y(3,12) = 3
cons25:  y(4,13) + y(4,14) + y(4,15) = 1
cons26:  y(5,16) + y(5,17) + y(5,18) + y(5,19) = 3
cons27:  2.36000 y(0,0) + 22 y(0,1) + 16.37000 y(0,2) + 5 y(0,3) + 6.24000 y(0,4) + 9.02000 y(0,5) + 5.83000 y(0,6) + 8.74000 y(0,7) + 12 y(0,8) + 15.54000 y(0,9)
 + 10.96000 y(0,10) + 10 y(0,11) + 11.45000 y(0,12) + 10.59000 y(0,13) + 11.47000 y(0,14) + 7.39000 y(0,15) + 6.24000 y(0,16) + 16 y(0,17) + 14.15000 y(0,18) + 12 y(0,19)
 <= 200
cons28:  2.36000 y(1,0) + 22 y(1,1) + 16.37000 y(1,2) + 5 y(1,3) + 6.24000 y(1,4) + 9.02000 y(1,5) + 5.83000 y(1,6) + 8.74000 y(1,7) + 12 y(1,8) + 15.54000 y(1,9)
 + 10.96000 y(1,10) + 10 y(1,11) + 11.45000 y(1,12) + 10.59000 y(1,13) + 11.47000 y(1,14) + 7.39000 y(1,15) + 6.24000 y(1,16) + 16 y(1,17) + 14.15000 y(1,18) + 12 y(1,19)
 <= 200
cons29:  2.36000 y(2,0) + 22 y(2,1) + 16.37000 y(2,2) + 5 y(2,3) + 6.24000 y(2,4) + 9.02000 y(2,5) + 5.83000 y(2,6) + 8.74000 y(2,7) + 12 y(2,8) + 15.54000 y(2,9)
 + 10.96000 y(2,10) + 10 y(2,11) + 11.45000 y(2,12) + 10.59000 y(2,13) + 11.47000 y(2,14) + 7.39000 y(2,15) + 6.24000 y(2,16) + 16 y(2,17) + 14.15000 y(2,18) + 12 y(2,19)
 <= 200
cons30:  2.36000 y(3,0) + 22 y(3,1) + 16.37000 y(3,2) + 5 y(3,3) + 6.24000 y(3,4) + 9.02000 y(3,5) + 5.83000 y(3,6) + 8.74000 y(3,7) + 12 y(3,8) + 15.54000 y(3,9)
 + 10.96000 y(3,10) + 10 y(3,11) + 11.45000 y(3,12) + 10.59000 y(3,13) + 11.47000 y(3,14) + 7.39000 y(3,15) + 6.24000 y(3,16) + 16 y(3,17) + 14.15000 y(3,18) + 12 y(3,19)
 <= 200
cons31:  2.36000 y(4,0) + 22 y(4,1) + 16.37000 y(4,2) + 5 y(4,3) + 6.24000 y(4,4) + 9.02000 y(4,5) + 5.83000 y(4,6) + 8.74000 y(4,7) + 12 y(4,8) + 15.54000 y(4,9)
 + 10.96000 y(4,10) + 10 y(4,11) + 11.45000 y(4,12) + 10.59000 y(4,13) + 11.47000 y(4,14) + 7.39000 y(4,15) + 6.24000 y(4,16) + 16 y(4,17) + 14.15000 y(4,18) + 12 y(4,19)
 <= 200
cons32:  2.36000 y(5,0) + 22 y(5,1) + 16.37000 y(5,2) + 5 y(5,3) + 6.24000 y(5,4) + 9.02000 y(5,5) + 5.83000 y(5,6) + 8.74000 y(5,7) + 12 y(5,8) + 15.54000 y(5,9)
 + 10.96000 y(5,10) + 10 y(5,11) + 11.45000 y(5,12) + 10.59000 y(5,13) + 11.47000 y(5,14) + 7.39000 y(5,15) + 6.24000 y(5,16) + 16 y(5,17) + 14.15000 y(5,18) + 12 y(5,19)
 <= 200
Bounds
 0 <= y(0,0) <= 1
 0 <= y(0,1) <= 1
 0 <= y(0,2) <= 1
 0 <= y(0,3) <= 1
 0 <= y(0,4) <= 1
 0 <= y(0,5) <= 1
 0 <= y(0,6) <= 1
 0 <= y(0,7) <= 1
 0 <= y(0,8) <= 1
 0 <= y(0,9) <= 1
 0 <= y(0,10) <= 1
 0 <= y(0,11) <= 1
 0 <= y(0,12) <= 1
 0 <= y(0,13) <= 1
 0 <= y(0,14) <= 1
 0 <= y(0,15) <= 1
 0 <= y(0,16) <= 1
 0 <= y(0,17) <= 1
 0 <= y(0,18) <= 1
 0 <= y(0,19) <= 1
 0 <= y(1,0) <= 1
 0 <= y(1,1) <= 1
 0 <= y(1,2) <= 1
 0 <= y(1,3) <= 1
 0 <= y(1,4) <= 1
 0 <= y(1,5) <= 1
 0 <= y(1,6) <= 1
 0 <= y(1,7) <= 1
 0 <= y(1,8) <= 1
 0 <= y(1,9) <= 1
 0 <= y(1,10) <= 1
 0 <= y(1,11) <= 1
 0 <= y(1,12) <= 1
 0 <= y(1,13) <= 1
 0 <= y(1,14) <= 1
 0 <= y(1,15) <= 1
 0 <= y(1,16) <= 1
 0 <= y(1,17) <= 1
 0 <= y(1,18) <= 1
 0 <= y(1,19) <= 1
 0 <= y(2,0) <= 1
 0 <= y(2,1) <= 1
 0 <= y(2,2) <= 1
 0 <= y(2,3) <= 1
 0 <= y(2,4) <= 1
 0 <= y(2,5) <= 1
 0 <= y(2,6) <= 1
 0 <= y(2,7) <= 1
 0 <= y(2,8) <= 1
 0 <= y(2,9) <= 1
 0 <= y(2,10) <= 1
 0 <= y(2,11) <= 1
 0 <= y(2,12) <= 1
 0 <= y(2,13) <= 1
 0 <= y(2,14) <= 1
 0 <= y(2,15) <= 1
 0 <= y(2,16) <= 1
 0 <= y(2,17) <= 1
 0 <= y(2,18) <= 1
 0 <= y(2,19) <= 1
 0 <= y(3,0) <= 1
 0 <= y(3,1) <= 1
 0 <= y(3,2) <= 1
 0 <= y(3,3) <= 1
 0 <= y(3,4) <= 1
 0 <= y(3,5) <= 1
 0 <= y(3,6) <= 1
 0 <= y(3,7) <= 1
 0 <= y(3,8) <= 1
 0 <= y(3,9) <= 1
 0 <= y(3,10) <= 1
 0 <= y(3,11) <= 1
 0 <= y(3,12) <= 1
 0 <= y(3,13) <= 1
 0 <= y(3,14) <= 1
 0 <= y(3,15) <= 1
 0 <= y(3,16) <= 1
 0 <= y(3,17) <= 1
 0 <= y(3,18) <= 1
 0 <= y(3,19) <= 1
 0 <= y(4,0) <= 1
 0 <= y(4,1) <= 1
 0 <= y(4,2) <= 1
 0 <= y(4,3) <= 1
 0 <= y(4,4) <= 1
 0 <= y(4,5) <= 1
 0 <= y(4,6) <= 1
 0 <= y(4,7) <= 1
 0 <= y(4,8) <= 1
 0 <= y(4,9) <= 1
 0 <= y(4,10) <= 1
 0 <= y(4,11) <= 1
 0 <= y(4,12) <= 1
 0 <= y(4,13) <= 1
 0 <= y(4,14) <= 1
 0 <= y(4,15) <= 1
 0 <= y(4,16) <= 1
 0 <= y(4,17) <= 1
 0 <= y(4,18) <= 1
 0 <= y(4,19) <= 1
 0 <= y(5,0) <= 1
 0 <= y(5,1) <= 1
 0 <= y(5,2) <= 1
 0 <= y(5,3) <= 1
 0 <= y(5,4) <= 1
 0 <= y(5,5) <= 1
 0 <= y(5,6) <= 1
 0 <= y(5,7) <= 1
 0 <= y(5,8) <= 1
 0 <= y(5,9) <= 1
 0 <= y(5,10) <= 1
 0 <= y(5,11) <= 1
 0 <= y(5,12) <= 1
 0 <= y(5,13) <= 1
 0 <= y(5,14) <= 1
 0 <= y(5,15) <= 1
 0 <= y(5,16) <= 1
 0 <= y(5,17) <= 1
 0 <= y(5,18) <= 1
 0 <= y(5,19) <= 1
Integers
y(0,0) y(0,1) y(0,2) y(0,3) y(0,4) y(0,5) y(0,6) y(0,7) y(0,8) y(0,9) 
y(0,10) y(0,11) y(0,12) y(0,13) y(0,14) y(0,15) y(0,16) y(0,17) y(0,18) y(0,19) 
y(1,0) y(1,1) y(1,2) y(1,3) y(1,4) y(1,5) y(1,6) y(1,7) y(1,8) y(1,9) 
y(1,10) y(1,11) y(1,12) y(1,13) y(1,14) y(1,15) y(1,16) y(1,17) y(1,18) y(1,19) 
y(2,0) y(2,1) y(2,2) y(2,3) y(2,4) y(2,5) y(2,6) y(2,7) y(2,8) y(2,9) 
y(2,10) y(2,11) y(2,12) y(2,13) y(2,14) y(2,15) y(2,16) y(2,17) y(2,18) y(2,19) 
y(3,0) y(3,1) y(3,2) y(3,3) y(3,4) y(3,5) y(3,6) y(3,7) y(3,8) y(3,9) 
y(3,10) y(3,11) y(3,12) y(3,13) y(3,14) y(3,15) y(3,16) y(3,17) y(3,18) y(3,19) 
y(4,0) y(4,1) y(4,2) y(4,3) y(4,4) y(4,5) y(4,6) y(4,7) y(4,8) y(4,9) 
y(4,10) y(4,11) y(4,12) y(4,13) y(4,14) y(4,15) y(4,16) y(4,17) y(4,18) y(4,19) 
y(5,0) y(5,1) y(5,2) y(5,3) y(5,4) y(5,5) y(5,6) y(5,7) y(5,8) y(5,9) 
y(5,10) y(5,11) y(5,12) y(5,13) y(5,14) y(5,15) y(5,16) y(5,17) y(5,18) y(5,19) 
End
